GLPSOL--GLPK LP/MIP Solver 5.0
Parameter(s) specified in the command line:
 --cpxlp --first inputs/new_tr/order/triang7_0_tiers_input.lp -o solutions/new_tr/triang7_0_tiers_input.lp
Reading problem data from 'inputs/new_tr/order/triang7_0_tiers_input.lp'...
inputs/new_tr/order/triang7_0_tiers_input.lp:4307: warning: lower bound of variable 'm_0_0' redefined
inputs/new_tr/order/triang7_0_tiers_input.lp:4307: warning: upper bound of variable 'm_0_0' redefined
3991 rows, 1597 columns, 11607 non-zeros
1597 integer variables, 1288 of which are binary
5875 lines were read
GLPK Integer Optimizer 5.0
3991 rows, 1597 columns, 11607 non-zeros
1597 integer variables, 1288 of which are binary
Preprocessing...
182 hidden packing inequaliti(es) were detected
22 hidden covering inequaliti(es) were detected
395 constraint coefficient(s) were reduced
2268 rows, 842 columns, 6148 non-zeros
842 integer variables, 814 of which are binary
Scaling...
 A: min|aij| =  1.000e+00  max|aij| =  9.900e+01  ratio =  9.900e+01
GM: min|aij| =  4.387e-01  max|aij| =  2.280e+00  ratio =  5.196e+00
EQ: min|aij| =  1.925e-01  max|aij| =  1.000e+00  ratio =  5.196e+00
2N: min|aij| =  1.250e-01  max|aij| =  1.438e+00  ratio =  1.150e+01
Constructing initial basis...
Size of triangular part is 2072
Solving LP relaxation...
GLPK Simplex Optimizer 5.0
2268 rows, 842 columns, 6148 non-zeros
      0: obj =   2.320000000e+02 inf =   2.499e+02 (306)
    718: obj =   3.876710242e+02 inf =   8.812e-16 (0) 6
*  1126: obj =   3.050000565e+02 inf =   6.210e-16 (0) 4
OPTIMAL LP SOLUTION FOUND
Integer optimization begins...
Long-step dual simplex will be used
+  1126: mip =     not found yet >=              -inf        (1; 0)
+  6591: >>>>>   4.640000000e+02 >=   3.060000000e+02  34.1% (31; 0)
+ 10841: >>>>>   3.810000000e+02 >=   3.060000000e+02  19.7% (55; 5)
+ 43875: mip =   3.810000000e+02 >=   3.060000000e+02  19.7% (147; 36)
+ 80153: mip =   3.810000000e+02 >=   3.060000000e+02  19.7% (262; 61)
Solution found by heuristic: 365
+117376: mip =   3.650000000e+02 >=   3.060000000e+02  16.2% (317; 171)
+153796: mip =   3.650000000e+02 >=   3.060000000e+02  16.2% (415; 205)
+190725: mip =   3.650000000e+02 >=   3.070000000e+02  15.9% (484; 227)
+227628: mip =   3.650000000e+02 >=   3.080000000e+02  15.6% (548; 253)
+266062: mip =   3.650000000e+02 >=   3.080000000e+02  15.6% (641; 296)
+303743: mip =   3.650000000e+02 >=   3.080000000e+02  15.6% (726; 326)
+342345: mip =   3.650000000e+02 >=   3.080000000e+02  15.6% (859; 361)
+350852: >>>>>   3.620000000e+02 >=   3.080000000e+02  14.9% (884; 368)
+389166: mip =   3.620000000e+02 >=   3.090000000e+02  14.6% (940; 451)
+426230: mip =   3.620000000e+02 >=   3.090000000e+02  14.6% (1039; 484)
Time used: 60.0 secs.  Memory used: 11.4 Mb.
+461918: mip =   3.620000000e+02 >=   3.090000000e+02  14.6% (1107; 499)
+499646: mip =   3.620000000e+02 >=   3.090000000e+02  14.6% (1217; 522)
+537170: mip =   3.620000000e+02 >=   3.090000000e+02  14.6% (1297; 541)
+573954: mip =   3.620000000e+02 >=   3.090000000e+02  14.6% (1384; 562)
+610968: mip =   3.620000000e+02 >=   3.100000000e+02  14.4% (1462; 595)
+647925: mip =   3.620000000e+02 >=   3.100000000e+02  14.4% (1518; 620)
+685117: mip =   3.620000000e+02 >=   3.100000000e+02  14.4% (1594; 648)
+722641: mip =   3.620000000e+02 >=   3.110000000e+02  14.1% (1690; 684)
+760976: mip =   3.620000000e+02 >=   3.110000000e+02  14.1% (1785; 723)
+799120: mip =   3.620000000e+02 >=   3.110000000e+02  14.1% (1860; 759)
+837358: mip =   3.620000000e+02 >=   3.120000000e+02  13.8% (1950; 797)
+878336: mip =   3.620000000e+02 >=   3.120000000e+02  13.8% (2123; 847)
Time used: 120.1 secs.  Memory used: 20.0 Mb.
+918006: mip =   3.620000000e+02 >=   3.120000000e+02  13.8% (2250; 898)
+955527: mip =   3.620000000e+02 >=   3.120000000e+02  13.8% (2325; 929)
+996146: mip =   3.620000000e+02 >=   3.130000000e+02  13.5% (2417; 985)
+1034292: mip =   3.620000000e+02 >=   3.130000000e+02  13.5% (2499; 1025)
+1067984: mip =   3.620000000e+02 >=   3.130000000e+02  13.5% (2539; 1055)
+1107482: mip =   3.620000000e+02 >=   3.140000000e+02  13.3% (2678; 1110)
+1145356: mip =   3.620000000e+02 >=   3.140000000e+02  13.3% (2767; 1138)
+1183501: mip =   3.620000000e+02 >=   3.140000000e+02  13.3% (2830; 1174)
+1218971: mip =   3.620000000e+02 >=   3.140000000e+02  13.3% (2865; 1207)
+1258230: mip =   3.620000000e+02 >=   3.150000000e+02  13.0% (2988; 1256)
+1299077: mip =   3.620000000e+02 >=   3.150000000e+02  13.0% (3135; 1319)
+1337619: mip =   3.620000000e+02 >=   3.150000000e+02  13.0% (3180; 1367)
Time used: 180.2 secs.  Memory used: 29.5 Mb.
+1375404: mip =   3.620000000e+02 >=   3.150000000e+02  13.0% (3216; 1406)
+1414522: mip =   3.620000000e+02 >=   3.160000000e+02  12.7% (3278; 1469)
+1452678: mip =   3.620000000e+02 >=   3.160000000e+02  12.7% (3347; 1513)
+1489795: mip =   3.620000000e+02 >=   3.160000000e+02  12.7% (3400; 1546)
+1528088: mip =   3.620000000e+02 >=   3.170000000e+02  12.4% (3491; 1599)
+1568847: mip =   3.620000000e+02 >=   3.170000000e+02  12.4% (3581; 1679)
+1605024: mip =   3.620000000e+02 >=   3.170000000e+02  12.4% (3597; 1725)
+1641742: mip =   3.620000000e+02 >=   3.180000000e+02  12.2% (3652; 1767)
+1680142: mip =   3.620000000e+02 >=   3.180000000e+02  12.2% (3702; 1798)
+1716748: mip =   3.620000000e+02 >=   3.180000000e+02  12.2% (3751; 1829)
+1754503: mip =   3.620000000e+02 >=   3.190000000e+02  11.9% (3800; 1864)
+1792339: mip =   3.620000000e+02 >=   3.190000000e+02  11.9% (3855; 1913)
Time used: 240.2 secs.  Memory used: 38.2 Mb.
+1828392: mip =   3.620000000e+02 >=   3.190000000e+02  11.9% (3901; 1947)
+1866612: mip =   3.620000000e+02 >=   3.200000000e+02  11.6% (3996; 2000)
+1904559: mip =   3.620000000e+02 >=   3.200000000e+02  11.6% (4026; 2067)
+1942732: mip =   3.620000000e+02 >=   3.210000000e+02  11.3% (4093; 2129)
+1980578: mip =   3.620000000e+02 >=   3.210000000e+02  11.3% (4157; 2187)
+2016708: mip =   3.620000000e+02 >=   3.210000000e+02  11.3% (4199; 2234)
+2056590: mip =   3.620000000e+02 >=   3.220000000e+02  11.0% (4289; 2302)
+2095288: mip =   3.620000000e+02 >=   3.220000000e+02  11.0% (4388; 2349)
+2132508: mip =   3.620000000e+02 >=   3.220000000e+02  11.0% (4473; 2396)
+2169622: mip =   3.620000000e+02 >=   3.220000000e+02  11.0% (4532; 2427)
+2204079: mip =   3.620000000e+02 >=   3.220000000e+02  11.0% (4600; 2451)
Time used: 300.2 secs.  Memory used: 46.6 Mb.
+2238879: mip =   3.620000000e+02 >=   3.220000000e+02  11.0% (4691; 2477)
+2276044: mip =   3.620000000e+02 >=   3.230000000e+02  10.8% (4764; 2538)
+2312639: mip =   3.620000000e+02 >=   3.230000000e+02  10.8% (4837; 2582)
+2349343: mip =   3.620000000e+02 >=   3.230000000e+02  10.8% (4923; 2620)
+2386130: mip =   3.620000000e+02 >=   3.230000000e+02  10.8% (4992; 2659)
+2422736: mip =   3.620000000e+02 >=   3.230000000e+02  10.8% (5058; 2694)
+2459882: mip =   3.620000000e+02 >=   3.240000000e+02  10.5% (5146; 2741)
+2499773: mip =   3.620000000e+02 >=   3.240000000e+02  10.5% (5277; 2818)
+2538430: mip =   3.620000000e+02 >=   3.240000000e+02  10.5% (5417; 2883)
+2577375: mip =   3.620000000e+02 >=   3.240000000e+02  10.5% (5513; 2934)
+2614820: mip =   3.620000000e+02 >=   3.240000000e+02  10.5% (5661; 2995)
+2652413: mip =   3.620000000e+02 >=   3.240000000e+02  10.5% (5731; 3028)
Time used: 360.2 secs.  Memory used: 54.7 Mb.
+2690729: mip =   3.620000000e+02 >=   3.240000000e+02  10.5% (5814; 3056)
+2729388: mip =   3.620000000e+02 >=   3.240000000e+02  10.5% (5921; 3092)
+2766935: mip =   3.620000000e+02 >=   3.240000000e+02  10.5% (5984; 3120)
+2803218: mip =   3.620000000e+02 >=   3.240000000e+02  10.5% (6051; 3143)
+2839815: mip =   3.620000000e+02 >=   3.240000000e+02  10.5% (6123; 3164)
+2876558: mip =   3.620000000e+02 >=   3.240000000e+02  10.5% (6175; 3189)
+2913509: mip =   3.620000000e+02 >=   3.240000000e+02  10.5% (6242; 3212)
+2950073: mip =   3.620000000e+02 >=   3.240000000e+02  10.5% (6339; 3236)
+2986800: mip =   3.620000000e+02 >=   3.240000000e+02  10.5% (6435; 3272)
+3023345: mip =   3.620000000e+02 >=   3.240000000e+02  10.5% (6562; 3316)
+3060324: mip =   3.620000000e+02 >=   3.240000000e+02  10.5% (6651; 3343)
+3099189: mip =   3.620000000e+02 >=   3.250000000e+02  10.2% (6744; 3414)
Time used: 420.3 secs.  Memory used: 61.0 Mb.
+3138005: mip =   3.620000000e+02 >=   3.250000000e+02  10.2% (6838; 3500)
+3177328: mip =   3.620000000e+02 >=   3.250000000e+02  10.2% (6933; 3573)
+3215717: mip =   3.620000000e+02 >=   3.250000000e+02  10.2% (7005; 3641)
+3253493: mip =   3.620000000e+02 >=   3.250000000e+02  10.2% (7070; 3702)
+3291780: mip =   3.620000000e+02 >=   3.250000000e+02  10.2% (7154; 3758)
+3329224: mip =   3.620000000e+02 >=   3.250000000e+02  10.2% (7249; 3806)
+3367515: mip =   3.620000000e+02 >=   3.250000000e+02  10.2% (7356; 3860)
+3404118: mip =   3.620000000e+02 >=   3.250000000e+02  10.2% (7432; 3907)
+3441341: mip =   3.620000000e+02 >=   3.250000000e+02  10.2% (7510; 3967)
+3479263: mip =   3.620000000e+02 >=   3.250000000e+02  10.2% (7604; 4029)
+3515781: mip =   3.620000000e+02 >=   3.250000000e+02  10.2% (7680; 4068)
+3551982: mip =   3.620000000e+02 >=   3.250000000e+02  10.2% (7764; 4123)
Time used: 480.3 secs.  Memory used: 69.1 Mb.
+3589619: mip =   3.620000000e+02 >=   3.250000000e+02  10.2% (7829; 4173)
+3626519: mip =   3.620000000e+02 >=   3.250000000e+02  10.2% (7899; 4214)
+3664183: mip =   3.620000000e+02 >=   3.250000000e+02  10.2% (7981; 4256)
+3700728: mip =   3.620000000e+02 >=   3.250000000e+02  10.2% (8029; 4307)
+3737642: mip =   3.620000000e+02 >=   3.250000000e+02  10.2% (8086; 4355)
+3776189: mip =   3.620000000e+02 >=   3.250000000e+02  10.2% (8168; 4410)
+3813152: mip =   3.620000000e+02 >=   3.250000000e+02  10.2% (8225; 4445)
+3850075: mip =   3.620000000e+02 >=   3.250000000e+02  10.2% (8264; 4486)
+3887393: mip =   3.620000000e+02 >=   3.250000000e+02  10.2% (8313; 4526)
+3924915: mip =   3.620000000e+02 >=   3.250000000e+02  10.2% (8382; 4562)
+3961962: mip =   3.620000000e+02 >=   3.250000000e+02  10.2% (8458; 4596)
+3999178: mip =   3.620000000e+02 >=   3.250000000e+02  10.2% (8529; 4626)
Time used: 540.3 secs.  Memory used: 74.9 Mb.
+4037808: mip =   3.620000000e+02 >=   3.260000000e+02   9.9% (8618; 4679)
+4077597: mip =   3.620000000e+02 >=   3.260000000e+02   9.9% (8761; 4755)
+4116030: mip =   3.620000000e+02 >=   3.260000000e+02   9.9% (8911; 4808)
+4154103: mip =   3.620000000e+02 >=   3.260000000e+02   9.9% (9020; 4864)
+4192294: mip =   3.620000000e+02 >=   3.260000000e+02   9.9% (9127; 4925)
+4230593: mip =   3.620000000e+02 >=   3.260000000e+02   9.9% (9231; 5004)
+4268045: mip =   3.620000000e+02 >=   3.260000000e+02   9.9% (9328; 5064)
+4305775: mip =   3.620000000e+02 >=   3.260000000e+02   9.9% (9428; 5111)
+4342672: mip =   3.620000000e+02 >=   3.260000000e+02   9.9% (9500; 5155)
+4380062: mip =   3.620000000e+02 >=   3.260000000e+02   9.9% (9579; 5210)
+4417932: mip =   3.620000000e+02 >=   3.260000000e+02   9.9% (9645; 5267)
+4455665: mip =   3.620000000e+02 >=   3.260000000e+02   9.9% (9690; 5338)
Time used: 600.4 secs.  Memory used: 84.6 Mb.
+4491183: mip =   3.620000000e+02 >=   3.260000000e+02   9.9% (9716; 5401)
+4529078: mip =   3.620000000e+02 >=   3.270000000e+02   9.7% (9778; 5454)
+4570640: mip =   3.620000000e+02 >=   3.270000000e+02   9.7% (9863; 5528)
+4611363: mip =   3.620000000e+02 >=   3.270000000e+02   9.7% (9977; 5603)
+4653133: mip =   3.620000000e+02 >=   3.270000000e+02   9.7% (10075; 5686)
+4695109: mip =   3.620000000e+02 >=   3.270000000e+02   9.7% (10174; 5762)
+4736754: mip =   3.620000000e+02 >=   3.270000000e+02   9.7% (10286; 5831)
+4777767: mip =   3.620000000e+02 >=   3.270000000e+02   9.7% (10375; 5896)
+4819036: mip =   3.620000000e+02 >=   3.270000000e+02   9.7% (10476; 5963)
+4860326: mip =   3.620000000e+02 >=   3.270000000e+02   9.7% (10584; 6027)
+4901843: mip =   3.620000000e+02 >=   3.270000000e+02   9.7% (10682; 6108)
+4942112: mip =   3.620000000e+02 >=   3.270000000e+02   9.7% (10792; 6164)
Time used: 660.4 secs.  Memory used: 93.2 Mb.
+4982484: mip =   3.620000000e+02 >=   3.270000000e+02   9.7% (10896; 6233)
+5023031: mip =   3.620000000e+02 >=   3.270000000e+02   9.7% (10996; 6278)
+5062991: mip =   3.620000000e+02 >=   3.270000000e+02   9.7% (11106; 6327)
+5102962: mip =   3.620000000e+02 >=   3.270000000e+02   9.7% (11216; 6392)
+5142653: mip =   3.620000000e+02 >=   3.270000000e+02   9.7% (11305; 6447)
+5182536: mip =   3.620000000e+02 >=   3.270000000e+02   9.7% (11410; 6492)
+5221995: mip =   3.620000000e+02 >=   3.270000000e+02   9.7% (11512; 6549)
+5262044: mip =   3.620000000e+02 >=   3.270000000e+02   9.7% (11616; 6599)
+5301413: mip =   3.620000000e+02 >=   3.270000000e+02   9.7% (11717; 6649)
+5341376: mip =   3.620000000e+02 >=   3.270000000e+02   9.7% (11810; 6697)
+5381100: mip =   3.620000000e+02 >=   3.270000000e+02   9.7% (11904; 6749)
+5420607: mip =   3.620000000e+02 >=   3.270000000e+02   9.7% (11986; 6799)
Time used: 720.4 secs.  Memory used: 101.4 Mb.
+5459281: mip =   3.620000000e+02 >=   3.270000000e+02   9.7% (12074; 6845)
+5498801: mip =   3.620000000e+02 >=   3.270000000e+02   9.7% (12160; 6890)
+5537920: mip =   3.620000000e+02 >=   3.270000000e+02   9.7% (12257; 6941)
+5576881: mip =   3.620000000e+02 >=   3.270000000e+02   9.7% (12349; 6989)
+5616693: mip =   3.620000000e+02 >=   3.270000000e+02   9.7% (12430; 7038)
+5654937: mip =   3.620000000e+02 >=   3.270000000e+02   9.7% (12520; 7084)
+5693884: mip =   3.620000000e+02 >=   3.270000000e+02   9.7% (12624; 7131)
+5732710: mip =   3.620000000e+02 >=   3.270000000e+02   9.7% (12697; 7179)
+5770472: mip =   3.620000000e+02 >=   3.270000000e+02   9.7% (12780; 7238)
+5808635: mip =   3.620000000e+02 >=   3.270000000e+02   9.7% (12858; 7283)
+5846535: mip =   3.620000000e+02 >=   3.270000000e+02   9.7% (12953; 7332)
+5884791: mip =   3.620000000e+02 >=   3.270000000e+02   9.7% (13039; 7378)
Time used: 780.4 secs.  Memory used: 109.1 Mb.
+5921811: mip =   3.620000000e+02 >=   3.270000000e+02   9.7% (13091; 7424)
+5960581: mip =   3.620000000e+02 >=   3.270000000e+02   9.7% (13176; 7473)
+5997438: mip =   3.620000000e+02 >=   3.270000000e+02   9.7% (13236; 7521)
+6033095: mip =   3.620000000e+02 >=   3.270000000e+02   9.7% (13258; 7590)
+6069129: mip =   3.620000000e+02 >=   3.270000000e+02   9.7% (13282; 7653)
+6103911: mip =   3.620000000e+02 >=   3.270000000e+02   9.7% (13293; 7713)
+6139836: mip =   3.620000000e+02 >=   3.270000000e+02   9.7% (13344; 7775)
+6174889: mip =   3.620000000e+02 >=   3.270000000e+02   9.7% (13374; 7816)
+6212408: mip =   3.620000000e+02 >=   3.280000000e+02   9.4% (13454; 7896)
+6251930: mip =   3.620000000e+02 >=   3.280000000e+02   9.4% (13560; 7980)
+6290847: mip =   3.620000000e+02 >=   3.280000000e+02   9.4% (13643; 8097)
+6329041: mip =   3.620000000e+02 >=   3.280000000e+02   9.4% (13718; 8187)
Time used: 840.5 secs.  Memory used: 117.1 Mb.
+6367800: mip =   3.620000000e+02 >=   3.280000000e+02   9.4% (13817; 8282)
+6405431: mip =   3.620000000e+02 >=   3.280000000e+02   9.4% (13932; 8351)
+6442318: mip =   3.620000000e+02 >=   3.280000000e+02   9.4% (13982; 8432)
+6477973: mip =   3.620000000e+02 >=   3.280000000e+02   9.4% (14040; 8518)
+6512073: mip =   3.620000000e+02 >=   3.280000000e+02   9.4% (14058; 8618)
+6547792: mip =   3.620000000e+02 >=   3.280000000e+02   9.4% (14142; 8682)
+6583989: mip =   3.620000000e+02 >=   3.280000000e+02   9.4% (14200; 8777)
+6619875: mip =   3.620000000e+02 >=   3.280000000e+02   9.4% (14256; 8822)
+6655829: mip =   3.620000000e+02 >=   3.280000000e+02   9.4% (14338; 8891)
+6692033: mip =   3.620000000e+02 >=   3.280000000e+02   9.4% (14370; 8963)
+6725576: mip =   3.620000000e+02 >=   3.290000000e+02   9.1% (14407; 8999)
+6763941: mip =   3.620000000e+02 >=   3.290000000e+02   9.1% (14466; 9081)
Time used: 900.5 secs.  Memory used: 125.9 Mb.
+6800784: mip =   3.620000000e+02 >=   3.290000000e+02   9.1% (14540; 9159)
+6837573: mip =   3.620000000e+02 >=   3.290000000e+02   9.1% (14628; 9226)
+6874012: mip =   3.620000000e+02 >=   3.290000000e+02   9.1% (14705; 9292)
+6909678: mip =   3.620000000e+02 >=   3.290000000e+02   9.1% (14755; 9392)
+6944844: mip =   3.620000000e+02 >=   3.290000000e+02   9.1% (14845; 9472)
+6979879: mip =   3.620000000e+02 >=   3.290000000e+02   9.1% (14909; 9545)
+7015527: mip =   3.620000000e+02 >=   3.290000000e+02   9.1% (14932; 9617)
+7051784: mip =   3.620000000e+02 >=   3.290000000e+02   9.1% (14986; 9697)
+7088449: mip =   3.620000000e+02 >=   3.290000000e+02   9.1% (15053; 9744)
+7125830: mip =   3.620000000e+02 >=   3.290000000e+02   9.1% (15108; 9813)
+7163504: mip =   3.620000000e+02 >=   3.290000000e+02   9.1% (15177; 9849)
Time used: 960.5 secs.  Memory used: 135.1 Mb.
+7200023: mip =   3.620000000e+02 >=   3.290000000e+02   9.1% (15247; 9902)
+7236493: mip =   3.620000000e+02 >=   3.290000000e+02   9.1% (15274; 9974)
+7272718: mip =   3.620000000e+02 >=   3.290000000e+02   9.1% (15308; 10047)
+7309372: mip =   3.620000000e+02 >=   3.290000000e+02   9.1% (15340; 10108)
+7345635: mip =   3.620000000e+02 >=   3.290000000e+02   9.1% (15367; 10180)
+7379642: mip =   3.620000000e+02 >=   3.290000000e+02   9.1% (15349; 10276)
+7414579: mip =   3.620000000e+02 >=   3.290000000e+02   9.1% (15415; 10310)
+7454143: mip =   3.620000000e+02 >=   3.300000000e+02   8.8% (15492; 10412)
+7492832: mip =   3.620000000e+02 >=   3.300000000e+02   8.8% (15592; 10478)
+7530586: mip =   3.620000000e+02 >=   3.300000000e+02   8.8% (15680; 10554)
+7567866: mip =   3.620000000e+02 >=   3.300000000e+02   8.8% (15738; 10627)
+7603974: mip =   3.620000000e+02 >=   3.300000000e+02   8.8% (15771; 10704)
Time used: 1020.6 secs.  Memory used: 143.7 Mb.
+7641926: mip =   3.620000000e+02 >=   3.300000000e+02   8.8% (15830; 10805)
+7678084: mip =   3.620000000e+02 >=   3.300000000e+02   8.8% (15874; 10917)
+7715288: mip =   3.620000000e+02 >=   3.300000000e+02   8.8% (15919; 11026)
+7751081: mip =   3.620000000e+02 >=   3.300000000e+02   8.8% (15942; 11142)
+7786820: mip =   3.620000000e+02 >=   3.300000000e+02   8.8% (15946; 11285)
+7823093: mip =   3.620000000e+02 >=   3.300000000e+02   8.8% (15932; 11392)
+7858212: mip =   3.620000000e+02 >=   3.300000000e+02   8.8% (15914; 11505)
+7893826: mip =   3.620000000e+02 >=   3.300000000e+02   8.8% (15926; 11571)
+7928684: mip =   3.620000000e+02 >=   3.300000000e+02   8.8% (15934; 11682)
+7961039: mip =   3.620000000e+02 >=   3.300000000e+02   8.8% (15874; 11834)
+8001877: mip =   3.620000000e+02 >=   3.310000000e+02   8.6% (15970; 11908)
+8040736: mip =   3.620000000e+02 >=   3.310000000e+02   8.6% (16055; 11993)
Time used: 1080.6 secs.  Memory used: 150.4 Mb.
+8078247: mip =   3.620000000e+02 >=   3.310000000e+02   8.6% (16103; 12109)
+8115117: mip =   3.620000000e+02 >=   3.310000000e+02   8.6% (16173; 12202)
+8156209: mip =   3.620000000e+02 >=   3.310000000e+02   8.6% (16255; 12273)
+8194643: mip =   3.620000000e+02 >=   3.310000000e+02   8.6% (16296; 12386)
+8230087: mip =   3.620000000e+02 >=   3.310000000e+02   8.6% (16277; 12538)
+8265536: mip =   3.620000000e+02 >=   3.310000000e+02   8.6% (16295; 12631)
+8301282: mip =   3.620000000e+02 >=   3.310000000e+02   8.6% (16326; 12738)
+8336233: mip =   3.620000000e+02 >=   3.310000000e+02   8.6% (16332; 12869)
+8372530: mip =   3.620000000e+02 >=   3.310000000e+02   8.6% (16349; 12964)
+8408067: mip =   3.620000000e+02 >=   3.310000000e+02   8.6% (16379; 13043)
+8442601: mip =   3.620000000e+02 >=   3.310000000e+02   8.6% (16391; 13169)
+8477170: mip =   3.620000000e+02 >=   3.310000000e+02   8.6% (16383; 13332)
Time used: 1140.6 secs.  Memory used: 156.9 Mb.
+8512917: mip =   3.620000000e+02 >=   3.310000000e+02   8.6% (16380; 13463)
+8547450: mip =   3.620000000e+02 >=   3.320000000e+02   8.3% (16374; 13555)
+8585331: mip =   3.620000000e+02 >=   3.320000000e+02   8.3% (16445; 13671)
+8622270: mip =   3.620000000e+02 >=   3.320000000e+02   8.3% (16460; 13823)
+8660876: mip =   3.620000000e+02 >=   3.320000000e+02   8.3% (16570; 13919)
+8698459: mip =   3.620000000e+02 >=   3.320000000e+02   8.3% (16645; 14039)
+8736294: mip =   3.620000000e+02 >=   3.320000000e+02   8.3% (16707; 14165)
+8772599: mip =   3.620000000e+02 >=   3.320000000e+02   8.3% (16801; 14240)
+8809965: mip =   3.620000000e+02 >=   3.320000000e+02   8.3% (16911; 14350)
+8846405: mip =   3.620000000e+02 >=   3.320000000e+02   8.3% (16973; 14479)
+8882855: mip =   3.620000000e+02 >=   3.320000000e+02   8.3% (16989; 14630)
+8919345: mip =   3.620000000e+02 >=   3.320000000e+02   8.3% (17040; 14749)
Time used: 1200.7 secs.  Memory used: 165.5 Mb.
+8955766: mip =   3.620000000e+02 >=   3.320000000e+02   8.3% (17093; 14868)
+8991370: mip =   3.620000000e+02 >=   3.320000000e+02   8.3% (17089; 15017)
+9027663: mip =   3.620000000e+02 >=   3.320000000e+02   8.3% (17100; 15164)
+9062723: mip =   3.620000000e+02 >=   3.320000000e+02   8.3% (17145; 15279)
+9097382: mip =   3.620000000e+02 >=   3.320000000e+02   8.3% (17131; 15472)
+9131495: mip =   3.620000000e+02 >=   3.320000000e+02   8.3% (17139; 15633)
+9165766: mip =   3.620000000e+02 >=   3.330000000e+02   8.0% (17154; 15747)
+9203361: mip =   3.620000000e+02 >=   3.330000000e+02   8.0% (17213; 15893)
+9242647: mip =   3.620000000e+02 >=   3.330000000e+02   8.0% (17318; 15979)
+9280609: mip =   3.620000000e+02 >=   3.330000000e+02   8.0% (17374; 16071)
+9318820: mip =   3.620000000e+02 >=   3.330000000e+02   8.0% (17399; 16185)
+9357823: mip =   3.620000000e+02 >=   3.330000000e+02   8.0% (17477; 16273)
Time used: 1260.7 secs.  Memory used: 172.5 Mb.
+9395261: mip =   3.620000000e+02 >=   3.330000000e+02   8.0% (17508; 16363)
+9431685: mip =   3.620000000e+02 >=   3.330000000e+02   8.0% (17538; 16491)
+9468520: mip =   3.620000000e+02 >=   3.330000000e+02   8.0% (17588; 16596)
+9504614: mip =   3.620000000e+02 >=   3.330000000e+02   8.0% (17596; 16734)
+9541431: mip =   3.620000000e+02 >=   3.330000000e+02   8.0% (17634; 16806)
+9577614: mip =   3.620000000e+02 >=   3.330000000e+02   8.0% (17651; 16918)
+9610974: mip =   3.620000000e+02 >=   3.330000000e+02   8.0% (17594; 17169)
+9645620: mip =   3.620000000e+02 >=   3.330000000e+02   8.0% (17605; 17272)
+9684780: mip =   3.620000000e+02 >=   3.340000000e+02   7.7% (17685; 17357)
+9724272: mip =   3.620000000e+02 >=   3.340000000e+02   7.7% (17742; 17477)
+9764027: mip =   3.620000000e+02 >=   3.340000000e+02   7.7% (17779; 17578)
+9802196: mip =   3.620000000e+02 >=   3.340000000e+02   7.7% (17829; 17661)
Time used: 1320.7 secs.  Memory used: 179.7 Mb.
+9841265: mip =   3.620000000e+02 >=   3.340000000e+02   7.7% (17875; 17727)
+9878142: mip =   3.620000000e+02 >=   3.340000000e+02   7.7% (17904; 17796)
+9914644: mip =   3.620000000e+02 >=   3.340000000e+02   7.7% (17929; 17893)
+9950980: mip =   3.620000000e+02 >=   3.340000000e+02   7.7% (17959; 17965)
+9985940: mip =   3.620000000e+02 >=   3.340000000e+02   7.7% (17956; 18083)
+10020839: mip =   3.620000000e+02 >=   3.340000000e+02   7.7% (17941; 18247)
+10056438: mip =   3.620000000e+02 >=   3.340000000e+02   7.7% (17932; 18416)
+10092850: mip =   3.620000000e+02 >=   3.340000000e+02   7.7% (17944; 18572)
+10129146: mip =   3.620000000e+02 >=   3.340000000e+02   7.7% (17985; 18627)
+10163670: mip =   3.620000000e+02 >=   3.340000000e+02   7.7% (18016; 18732)
+10199382: mip =   3.620000000e+02 >=   3.350000000e+02   7.5% (18040; 18895)
+10238920: mip =   3.620000000e+02 >=   3.350000000e+02   7.5% (18098; 19011)
Time used: 1380.7 secs.  Memory used: 184.3 Mb.
+10277094: mip =   3.620000000e+02 >=   3.350000000e+02   7.5% (18165; 19124)
+10313266: mip =   3.620000000e+02 >=   3.350000000e+02   7.5% (18244; 19254)
+10348738: mip =   3.620000000e+02 >=   3.350000000e+02   7.5% (18270; 19398)
+10384177: mip =   3.620000000e+02 >=   3.350000000e+02   7.5% (18251; 19563)
+10418284: mip =   3.620000000e+02 >=   3.350000000e+02   7.5% (18237; 19720)
+10452914: mip =   3.620000000e+02 >=   3.350000000e+02   7.5% (18234; 19832)
+10486564: mip =   3.620000000e+02 >=   3.350000000e+02   7.5% (18252; 19891)
+10523155: mip =   3.620000000e+02 >=   3.360000000e+02   7.2% (18336; 20020)
+10561591: mip =   3.620000000e+02 >=   3.360000000e+02   7.2% (18415; 20126)
+10600199: mip =   3.620000000e+02 >=   3.360000000e+02   7.2% (18464; 20218)
+10638248: mip =   3.620000000e+02 >=   3.360000000e+02   7.2% (18535; 20329)
+10675767: mip =   3.620000000e+02 >=   3.360000000e+02   7.2% (18614; 20422)
Time used: 1440.8 secs.  Memory used: 191.5 Mb.
+10712968: mip =   3.620000000e+02 >=   3.360000000e+02   7.2% (18680; 20520)
+10749216: mip =   3.620000000e+02 >=   3.360000000e+02   7.2% (18772; 20658)
+10784013: mip =   3.620000000e+02 >=   3.360000000e+02   7.2% (18801; 20795)
+10819468: mip =   3.620000000e+02 >=   3.360000000e+02   7.2% (18875; 20932)
+10853383: mip =   3.620000000e+02 >=   3.360000000e+02   7.2% (18895; 21090)
+10887297: mip =   3.620000000e+02 >=   3.360000000e+02   7.2% (18952; 21199)
+10922223: mip =   3.620000000e+02 >=   3.370000000e+02   6.9% (18983; 21409)
+10958001: mip =   3.620000000e+02 >=   3.370000000e+02   6.9% (19025; 21573)
+10993578: mip =   3.620000000e+02 >=   3.370000000e+02   6.9% (19043; 21743)
+11028504: mip =   3.620000000e+02 >=   3.370000000e+02   6.9% (19032; 21908)
+11062929: mip =   3.620000000e+02 >=   3.370000000e+02   6.9% (18988; 22109)
+11097000: mip =   3.620000000e+02 >=   3.370000000e+02   6.9% (18932; 22296)
Time used: 1500.8 secs.  Memory used: 196.8 Mb.
+11130308: mip =   3.620000000e+02 >=   3.370000000e+02   6.9% (18870; 22543)
+11163632: mip =   3.620000000e+02 >=   3.370000000e+02   6.9% (18791; 22826)
+11197064: mip =   3.620000000e+02 >=   3.370000000e+02   6.9% (18740; 23052)
+11230462: mip =   3.620000000e+02 >=   3.370000000e+02   6.9% (18689; 23273)
+11263709: mip =   3.620000000e+02 >=   3.370000000e+02   6.9% (18622; 23500)
+11295695: mip =   3.620000000e+02 >=   3.370000000e+02   6.9% (18524; 23785)
+11328238: mip =   3.620000000e+02 >=   3.370000000e+02   6.9% (18442; 24059)
+11360904: mip =   3.620000000e+02 >=   3.370000000e+02   6.9% (18369; 24304)
+11394172: mip =   3.620000000e+02 >=   3.370000000e+02   6.9% (18306; 24539)
+11429652: mip =   3.620000000e+02 >=   3.370000000e+02   6.9% (18243; 24744)
+11462817: mip =   3.620000000e+02 >=   3.370000000e+02   6.9% (18182; 25019)
+11495265: mip =   3.620000000e+02 >=   3.370000000e+02   6.9% (18133; 25323)
Time used: 1560.8 secs.  Memory used: 197.6 Mb.
+11529541: mip =   3.620000000e+02 >=   3.370000000e+02   6.9% (18097; 25563)
+11563045: mip =   3.620000000e+02 >=   3.370000000e+02   6.9% (18078; 25740)
+11596992: mip =   3.620000000e+02 >=   3.380000000e+02   6.6% (18062; 25940)
+11632964: mip =   3.620000000e+02 >=   3.380000000e+02   6.6% (18017; 26191)
+11668043: mip =   3.620000000e+02 >=   3.380000000e+02   6.6% (17949; 26478)
+11703946: mip =   3.620000000e+02 >=   3.380000000e+02   6.6% (17903; 26680)
+11739403: mip =   3.620000000e+02 >=   3.380000000e+02   6.6% (17843; 26861)
+11774685: mip =   3.620000000e+02 >=   3.380000000e+02   6.6% (17786; 27030)
+11810150: mip =   3.620000000e+02 >=   3.380000000e+02   6.6% (17751; 27162)
+11845661: mip =   3.620000000e+02 >=   3.380000000e+02   6.6% (17709; 27342)
+11880996: mip =   3.620000000e+02 >=   3.380000000e+02   6.6% (17650; 27502)
Time used: 1620.8 secs.  Memory used: 199.4 Mb.
+11916124: mip =   3.620000000e+02 >=   3.380000000e+02   6.6% (17616; 27624)
+11951533: mip =   3.620000000e+02 >=   3.380000000e+02   6.6% (17580; 27750)
+11986576: mip =   3.620000000e+02 >=   3.380000000e+02   6.6% (17532; 27894)
+12021554: mip =   3.620000000e+02 >=   3.380000000e+02   6.6% (17495; 28053)
+12055054: mip =   3.620000000e+02 >=   3.380000000e+02   6.6% (17500; 28143)
+12093788: mip =   3.620000000e+02 >=   3.390000000e+02   6.4% (17567; 28278)
+12130019: mip =   3.620000000e+02 >=   3.390000000e+02   6.4% (17559; 28549)
+12165029: mip =   3.620000000e+02 >=   3.390000000e+02   6.4% (17523; 28814)
+12199135: mip =   3.620000000e+02 >=   3.390000000e+02   6.4% (17424; 29133)
+12233376: mip =   3.620000000e+02 >=   3.390000000e+02   6.4% (17393; 29388)
+12267479: mip =   3.620000000e+02 >=   3.390000000e+02   6.4% (17328; 29688)
+12302212: mip =   3.620000000e+02 >=   3.390000000e+02   6.4% (17312; 29907)
Time used: 1680.8 secs.  Memory used: 202.1 Mb.
+12337403: mip =   3.620000000e+02 >=   3.390000000e+02   6.4% (17266; 30148)
+12373529: mip =   3.620000000e+02 >=   3.390000000e+02   6.4% (17275; 30270)
+12410837: mip =   3.620000000e+02 >=   3.400000000e+02   6.1% (17337; 30388)
+12448706: mip =   3.620000000e+02 >=   3.400000000e+02   6.1% (17367; 30503)
+12485986: mip =   3.620000000e+02 >=   3.400000000e+02   6.1% (17384; 30620)
+12522423: mip =   3.620000000e+02 >=   3.400000000e+02   6.1% (17382; 30750)
+12559052: mip =   3.620000000e+02 >=   3.400000000e+02   6.1% (17383; 30879)
+12596897: mip =   3.620000000e+02 >=   3.400000000e+02   6.1% (17402; 30977)
+12633452: mip =   3.620000000e+02 >=   3.400000000e+02   6.1% (17406; 31091)
+12668587: mip =   3.620000000e+02 >=   3.400000000e+02   6.1% (17410; 31221)
+12702318: mip =   3.620000000e+02 >=   3.410000000e+02   5.8% (17407; 31396)
+12737009: mip =   3.620000000e+02 >=   3.410000000e+02   5.8% (17417; 31665)
Time used: 1740.8 secs.  Memory used: 207.1 Mb.
+12765177: mip =   3.620000000e+02 >=   3.410000000e+02   5.8% (17292; 32258)
+12795775: mip =   3.620000000e+02 >=   3.410000000e+02   5.8% (17249; 32614)
+12830291: mip =   3.620000000e+02 >=   3.410000000e+02   5.8% (17266; 32821)
+12863501: mip =   3.620000000e+02 >=   3.410000000e+02   5.8% (17278; 33050)
+12897118: mip =   3.620000000e+02 >=   3.410000000e+02   5.8% (17323; 33184)
+12931438: mip =   3.620000000e+02 >=   3.410000000e+02   5.8% (17351; 33325)
+12964710: mip =   3.620000000e+02 >=   3.410000000e+02   5.8% (17388; 33478)
+12999201: mip =   3.620000000e+02 >=   3.420000000e+02   5.5% (17468; 33604)
+13034131: mip =   3.620000000e+02 >=   3.420000000e+02   5.5% (17494; 33810)
+13069461: mip =   3.620000000e+02 >=   3.420000000e+02   5.5% (17493; 33957)
+13103093: mip =   3.620000000e+02 >=   3.420000000e+02   5.5% (17400; 34213)
+13136150: mip =   3.620000000e+02 >=   3.420000000e+02   5.5% (17307; 34509)
